;Number of predicates (nodes) = 13
;Number of variables = 5
;Number of clauses = 16
;
(set-logic HORN)
(declare-fun assert_171_24_1 (Int Int Int Int Int Int Int Int Int Int Int) Bool)
(declare-fun assign_147_23_1 (Int Int Int Int Int Int Int Int Int Int Int) Bool)
(declare-fun assign_126_20_5 (Int Int Int Int Int Int Int Int Int Int Int) Bool)
(declare-fun arrayassign_117_19_5 (Int Int Int Int Int Int Int Int Int Int Int) Bool)
(declare-fun while_129_18_1 (Int Int Int Int Int Int Int Int Int Int Int) Bool)
(declare-fun assign_89_17_1 (Int Int Int Int Int Int Int Int Int Int Int) Bool)
(declare-fun assign_80_14_5 (Int Int Int Int Int Int Int Int Int Int Int) Bool)
(declare-fun arrayassign_71_13_5 (Int Int Int Int Int Int Int Int Int Int Int) Bool)
(declare-fun while_83_12_1 (Int Int Int Int Int Int Int Int Int Int Int) Bool)
(declare-fun assign_49_10_1 (Int Int Int Int Int Int Int Int Int Int Int) Bool)
(declare-fun assign_37_9_1 (Int Int Int Int Int Int Int Int Int Int Int) Bool)
(declare-fun end (Int Int Int Int Int Int Int Int Int Int Int) Bool)
(declare-fun start (Int Int Int Int Int Int Int Int Int Int Int) Bool)
(assert (forall ((a0_ind Int) (a0_val Int) (a1_ind Int) (a1_val Int) (a_copy0_ind Int) (a_copy0_val Int) (a_copy1_ind Int) (a_copy1_val Int) (i Int) (k Int) (size Int)) (=> (and (< a0_ind a1_ind) (< a_copy0_ind a_copy1_ind)) (start a_copy0_ind a_copy0_val a_copy1_ind a_copy1_val a0_ind a0_val a1_ind a1_val size k i))))
(assert (forall ((a0_ind Int) (a0_val Int) (a1_ind Int) (a1_val Int) (a_copy0_ind Int) (a_copy0_val Int) (a_copy1_ind Int) (a_copy1_val Int) (i Int) (k Int) (size Int)) (=> (and (< a0_ind a1_ind) (< a_copy0_ind a_copy1_ind) (start a_copy0_ind a_copy0_val a_copy1_ind a_copy1_val a0_ind a0_val a1_ind a1_val size k i)) (assign_37_9_1 a_copy0_ind a_copy0_val a_copy1_ind a_copy1_val a0_ind a0_val a1_ind a1_val size k i))))
;
;(assign)  i := 0
(assert (forall ((a0_ind Int) (a0_val Int) (a1_ind Int) (a1_val Int) (a_copy0_ind Int) (a_copy0_val Int) (a_copy1_ind Int) (a_copy1_val Int) (i Int) (k Int) (size Int)) (=> (and (< a0_ind a1_ind) (< a_copy0_ind a_copy1_ind) (assign_37_9_1 a_copy0_ind a_copy0_val a_copy1_ind a_copy1_val a0_ind a0_val a1_ind a1_val size k i)) (assign_49_10_1 a_copy0_ind a_copy0_val a_copy1_ind a_copy1_val a0_ind a0_val a1_ind a1_val size k 0))))
;
;(assign)  size := Support.random()
(assert (forall ((a0_ind Int) (a0_val Int) (a1_ind Int) (a1_val Int) (a_copy0_ind Int) (a_copy0_val Int) (a_copy1_ind Int) (a_copy1_val Int) (i Int) (k Int) (rnd Int) (size Int)) (=> (and (< a0_ind a1_ind) (< a_copy0_ind a_copy1_ind) (assign_49_10_1 a_copy0_ind a_copy0_val a_copy1_ind a_copy1_val a0_ind a0_val a1_ind a1_val size k i)) (while_83_12_1 a_copy0_ind a_copy0_val a_copy1_ind a_copy1_val a0_ind a0_val a1_ind a1_val rnd k i))))
;
;(while)   while((i<size))
(assert (forall ((a0_ind Int) (a0_val Int) (a1_ind Int) (a1_val Int) (a_copy0_ind Int) (a_copy0_val Int) (a_copy1_ind Int) (a_copy1_val Int) (i Int) (k Int) (size Int)) (=> (and (< a0_ind a1_ind) (< a_copy0_ind a_copy1_ind) (while_83_12_1 a_copy0_ind a_copy0_val a_copy1_ind a_copy1_val a0_ind a0_val a1_ind a1_val size k i) (< i size)) (arrayassign_71_13_5 a_copy0_ind a_copy0_val a_copy1_ind a_copy1_val a0_ind a0_val a1_ind a1_val size k i))))
(assert (forall ((a0_ind Int) (a0_val Int) (a1_ind Int) (a1_val Int) (a_copy0_ind Int) (a_copy0_val Int) (a_copy1_ind Int) (a_copy1_val Int) (i Int) (k Int) (size Int)) (=> (and (< a0_ind a1_ind) (< a_copy0_ind a_copy1_ind) (while_83_12_1 a_copy0_ind a_copy0_val a_copy1_ind a_copy1_val a0_ind a0_val a1_ind a1_val size k i) (not (< i size))) (assign_89_17_1 a_copy0_ind a_copy0_val a_copy1_ind a_copy1_val a0_ind a0_val a1_ind a1_val size k i))))
;
;(aassign) a_copy[i] := a[i]
(assert (forall ((a0_ind Int) (a0_val Int) (a1_ind Int) (a1_val Int) (a_copy0_ind Int) (a_copy0_val Int) (a_copy1_ind Int) (a_copy1_val Int) (i Int) (k Int) (size Int) (tmp_select_a Int) (tmp_store_a_copy0_ind Int) (tmp_store_a_copy0_val Int) (tmp_store_a_copy1_ind Int) (tmp_store_a_copy1_val Int)) (=> (and (< a0_ind a1_ind) (< a_copy0_ind a_copy1_ind) (arrayassign_71_13_5 a_copy0_ind a_copy0_val a_copy1_ind a_copy1_val a0_ind a0_val a1_ind a1_val size k i) (or (and (= a0_ind i) (= tmp_select_a a0_val)) (and (= a1_ind i) (= tmp_select_a a1_val)) (and (< i a0_ind) (< i a1_ind) (arrayassign_71_13_5 a_copy0_ind a_copy0_val a_copy1_ind a_copy1_val i tmp_select_a a1_ind a1_val size k i) (< i a0_ind) (arrayassign_71_13_5 a_copy0_ind a_copy0_val a_copy1_ind a_copy1_val i tmp_select_a a0_ind a0_val size k i)) (and (< a0_ind i) (< i a1_ind) (< i a1_ind) (arrayassign_71_13_5 a_copy0_ind a_copy0_val a_copy1_ind a_copy1_val i tmp_select_a a1_ind a1_val size k i) (< a0_ind i) (arrayassign_71_13_5 a_copy0_ind a_copy0_val a_copy1_ind a_copy1_val a0_ind a0_val i tmp_select_a size k i)) (and (< a1_ind i) (< a1_ind i) (arrayassign_71_13_5 a_copy0_ind a_copy0_val a_copy1_ind a_copy1_val a1_ind a1_val i tmp_select_a size k i) (< a0_ind i) (arrayassign_71_13_5 a_copy0_ind a_copy0_val a_copy1_ind a_copy1_val a0_ind a0_val i tmp_select_a size k i))) (= tmp_store_a_copy0_ind a_copy0_ind) (= tmp_store_a_copy1_ind a_copy1_ind) (or (and (= a_copy0_ind i) (= tmp_store_a_copy1_val a_copy1_val) (= tmp_store_a_copy0_val tmp_select_a)) (and (= a_copy1_ind i) (= tmp_store_a_copy0_val a_copy0_val) (= tmp_store_a_copy1_val tmp_select_a)) (and (not (= a_copy0_ind i)) (not (= a_copy1_ind i)) (= tmp_store_a_copy0_val a_copy0_val) (= tmp_store_a_copy1_val a_copy1_val)))) (assign_80_14_5 tmp_store_a_copy0_ind tmp_store_a_copy0_val tmp_store_a_copy1_ind tmp_store_a_copy1_val a0_ind a0_val a1_ind a1_val size k i))))
;
;(assign)  i := (i+1)
(assert (forall ((a0_ind Int) (a0_val Int) (a1_ind Int) (a1_val Int) (a_copy0_ind Int) (a_copy0_val Int) (a_copy1_ind Int) (a_copy1_val Int) (i Int) (k Int) (size Int)) (=> (and (< a0_ind a1_ind) (< a_copy0_ind a_copy1_ind) (assign_80_14_5 a_copy0_ind a_copy0_val a_copy1_ind a_copy1_val a0_ind a0_val a1_ind a1_val size k i)) (while_83_12_1 a_copy0_ind a_copy0_val a_copy1_ind a_copy1_val a0_ind a0_val a1_ind a1_val size k (+ i 1)))))
;
;(assign)  i := 0
(assert (forall ((a0_ind Int) (a0_val Int) (a1_ind Int) (a1_val Int) (a_copy0_ind Int) (a_copy0_val Int) (a_copy1_ind Int) (a_copy1_val Int) (i Int) (k Int) (size Int)) (=> (and (< a0_ind a1_ind) (< a_copy0_ind a_copy1_ind) (assign_89_17_1 a_copy0_ind a_copy0_val a_copy1_ind a_copy1_val a0_ind a0_val a1_ind a1_val size k i)) (while_129_18_1 a_copy0_ind a_copy0_val a_copy1_ind a_copy1_val a0_ind a0_val a1_ind a1_val size k 0))))
;
;(while)   while((i<size))
(assert (forall ((a0_ind Int) (a0_val Int) (a1_ind Int) (a1_val Int) (a_copy0_ind Int) (a_copy0_val Int) (a_copy1_ind Int) (a_copy1_val Int) (i Int) (k Int) (size Int)) (=> (and (< a0_ind a1_ind) (< a_copy0_ind a_copy1_ind) (while_129_18_1 a_copy0_ind a_copy0_val a_copy1_ind a_copy1_val a0_ind a0_val a1_ind a1_val size k i) (< i size)) (arrayassign_117_19_5 a_copy0_ind a_copy0_val a_copy1_ind a_copy1_val a0_ind a0_val a1_ind a1_val size k i))))
(assert (forall ((a0_ind Int) (a0_val Int) (a1_ind Int) (a1_val Int) (a_copy0_ind Int) (a_copy0_val Int) (a_copy1_ind Int) (a_copy1_val Int) (i Int) (k Int) (size Int)) (=> (and (< a0_ind a1_ind) (< a_copy0_ind a_copy1_ind) (while_129_18_1 a_copy0_ind a_copy0_val a_copy1_ind a_copy1_val a0_ind a0_val a1_ind a1_val size k i) (not (< i size))) (assign_147_23_1 a_copy0_ind a_copy0_val a_copy1_ind a_copy1_val a0_ind a0_val a1_ind a1_val size k i))))
;
;(aassign) a[i] := a_copy[((size-i)-1)]
(assert (forall ((a0_ind Int) (a0_val Int) (a1_ind Int) (a1_val Int) (a_copy0_ind Int) (a_copy0_val Int) (a_copy1_ind Int) (a_copy1_val Int) (i Int) (k Int) (size Int) (tmp_select_a_copy Int) (tmp_store_a0_ind Int) (tmp_store_a0_val Int) (tmp_store_a1_ind Int) (tmp_store_a1_val Int)) (=> (and (< a0_ind a1_ind) (< a_copy0_ind a_copy1_ind) (arrayassign_117_19_5 a_copy0_ind a_copy0_val a_copy1_ind a_copy1_val a0_ind a0_val a1_ind a1_val size k i) (or (and (= a_copy0_ind (- (- size i) 1)) (= tmp_select_a_copy a_copy0_val)) (and (= a_copy1_ind (- (- size i) 1)) (= tmp_select_a_copy a_copy1_val)) (and (< (- (- size i) 1) a_copy0_ind) (< (- (- size i) 1) a_copy1_ind) (arrayassign_117_19_5 (- (- size i) 1) tmp_select_a_copy a_copy1_ind a_copy1_val a0_ind a0_val a1_ind a1_val size k i) (< (- (- size i) 1) a_copy0_ind) (arrayassign_117_19_5 (- (- size i) 1) tmp_select_a_copy a_copy0_ind a_copy0_val a0_ind a0_val a1_ind a1_val size k i)) (and (< a_copy0_ind (- (- size i) 1)) (< (- (- size i) 1) a_copy1_ind) (< (- (- size i) 1) a_copy1_ind) (arrayassign_117_19_5 (- (- size i) 1) tmp_select_a_copy a_copy1_ind a_copy1_val a0_ind a0_val a1_ind a1_val size k i) (< a_copy0_ind (- (- size i) 1)) (arrayassign_117_19_5 a_copy0_ind a_copy0_val (- (- size i) 1) tmp_select_a_copy a0_ind a0_val a1_ind a1_val size k i)) (and (< a_copy1_ind (- (- size i) 1)) (< a_copy1_ind (- (- size i) 1)) (arrayassign_117_19_5 a_copy1_ind a_copy1_val (- (- size i) 1) tmp_select_a_copy a0_ind a0_val a1_ind a1_val size k i) (< a_copy0_ind (- (- size i) 1)) (arrayassign_117_19_5 a_copy0_ind a_copy0_val (- (- size i) 1) tmp_select_a_copy a0_ind a0_val a1_ind a1_val size k i))) (= tmp_store_a0_ind a0_ind) (= tmp_store_a1_ind a1_ind) (or (and (= a0_ind i) (= tmp_store_a1_val a1_val) (= tmp_store_a0_val tmp_select_a_copy)) (and (= a1_ind i) (= tmp_store_a0_val a0_val) (= tmp_store_a1_val tmp_select_a_copy)) (and (not (= a0_ind i)) (not (= a1_ind i)) (= tmp_store_a0_val a0_val) (= tmp_store_a1_val a1_val)))) (assign_126_20_5 a_copy0_ind a_copy0_val a_copy1_ind a_copy1_val tmp_store_a0_ind tmp_store_a0_val tmp_store_a1_ind tmp_store_a1_val size k i))))
;
;(assign)  i := (i+1)
(assert (forall ((a0_ind Int) (a0_val Int) (a1_ind Int) (a1_val Int) (a_copy0_ind Int) (a_copy0_val Int) (a_copy1_ind Int) (a_copy1_val Int) (i Int) (k Int) (size Int)) (=> (and (< a0_ind a1_ind) (< a_copy0_ind a_copy1_ind) (assign_126_20_5 a_copy0_ind a_copy0_val a_copy1_ind a_copy1_val a0_ind a0_val a1_ind a1_val size k i)) (while_129_18_1 a_copy0_ind a_copy0_val a_copy1_ind a_copy1_val a0_ind a0_val a1_ind a1_val size k (+ i 1)))))
;
;(assign)  k := Support.random(0, (size+1))
(assert (forall ((a0_ind Int) (a0_val Int) (a1_ind Int) (a1_val Int) (a_copy0_ind Int) (a_copy0_val Int) (a_copy1_ind Int) (a_copy1_val Int) (i Int) (k Int) (rnd Int) (size Int)) (=> (and (< a0_ind a1_ind) (< a_copy0_ind a_copy1_ind) (assign_147_23_1 a_copy0_ind a_copy0_val a_copy1_ind a_copy1_val a0_ind a0_val a1_ind a1_val size k i) (>= rnd 0) (< rnd (+ size 1))) (assert_171_24_1 a_copy0_ind a_copy0_val a_copy1_ind a_copy1_val a0_ind a0_val a1_ind a1_val size rnd i))))
;
;(assert)  (a_copy[((size-1)-k)]==a[k])
(assert (forall ((a0_ind Int) (a0_val Int) (a1_ind Int) (a1_val Int) (a_copy0_ind Int) (a_copy0_val Int) (a_copy1_ind Int) (a_copy1_val Int) (i Int) (k Int) (size Int) (tmp_select_a Int) (tmp_select_a_copy Int)) (=> (and (< a0_ind a1_ind) (< a_copy0_ind a_copy1_ind) (assert_171_24_1 a_copy0_ind a_copy0_val a_copy1_ind a_copy1_val a0_ind a0_val a1_ind a1_val size k i) (or (and (= a_copy0_ind (- (- size 1) k)) (= tmp_select_a_copy a_copy0_val)) (and (= a_copy1_ind (- (- size 1) k)) (= tmp_select_a_copy a_copy1_val)) (and (< (- (- size 1) k) a_copy0_ind) (< (- (- size 1) k) a_copy1_ind) (assert_171_24_1 (- (- size 1) k) tmp_select_a_copy a_copy1_ind a_copy1_val a0_ind a0_val a1_ind a1_val size k i) (< (- (- size 1) k) a_copy0_ind) (assert_171_24_1 (- (- size 1) k) tmp_select_a_copy a_copy0_ind a_copy0_val a0_ind a0_val a1_ind a1_val size k i)) (and (< a_copy0_ind (- (- size 1) k)) (< (- (- size 1) k) a_copy1_ind) (< (- (- size 1) k) a_copy1_ind) (assert_171_24_1 (- (- size 1) k) tmp_select_a_copy a_copy1_ind a_copy1_val a0_ind a0_val a1_ind a1_val size k i) (< a_copy0_ind (- (- size 1) k)) (assert_171_24_1 a_copy0_ind a_copy0_val (- (- size 1) k) tmp_select_a_copy a0_ind a0_val a1_ind a1_val size k i)) (and (< a_copy1_ind (- (- size 1) k)) (< a_copy1_ind (- (- size 1) k)) (assert_171_24_1 a_copy1_ind a_copy1_val (- (- size 1) k) tmp_select_a_copy a0_ind a0_val a1_ind a1_val size k i) (< a_copy0_ind (- (- size 1) k)) (assert_171_24_1 a_copy0_ind a_copy0_val (- (- size 1) k) tmp_select_a_copy a0_ind a0_val a1_ind a1_val size k i))) (or (and (= a0_ind k) (= tmp_select_a a0_val)) (and (= a1_ind k) (= tmp_select_a a1_val)) (and (< k a0_ind) (< k a1_ind) (assert_171_24_1 a_copy0_ind a_copy0_val a_copy1_ind a_copy1_val k tmp_select_a a1_ind a1_val size k i) (or (and (= a_copy0_ind (- (- size 1) k)) (= tmp_select_a_copy a_copy0_val)) (and (= a_copy1_ind (- (- size 1) k)) (= tmp_select_a_copy a_copy1_val)) (and (< (- (- size 1) k) a_copy0_ind) (< (- (- size 1) k) a_copy1_ind) (assert_171_24_1 (- (- size 1) k) tmp_select_a_copy a_copy1_ind a_copy1_val k tmp_select_a a1_ind a1_val size k i) (< (- (- size 1) k) a_copy0_ind) (assert_171_24_1 (- (- size 1) k) tmp_select_a_copy a_copy0_ind a_copy0_val k tmp_select_a a1_ind a1_val size k i)) (and (< a_copy0_ind (- (- size 1) k)) (< (- (- size 1) k) a_copy1_ind) (< (- (- size 1) k) a_copy1_ind) (assert_171_24_1 (- (- size 1) k) tmp_select_a_copy a_copy1_ind a_copy1_val k tmp_select_a a1_ind a1_val size k i) (< a_copy0_ind (- (- size 1) k)) (assert_171_24_1 a_copy0_ind a_copy0_val (- (- size 1) k) tmp_select_a_copy k tmp_select_a a1_ind a1_val size k i)) (and (< a_copy1_ind (- (- size 1) k)) (< a_copy1_ind (- (- size 1) k)) (assert_171_24_1 a_copy1_ind a_copy1_val (- (- size 1) k) tmp_select_a_copy k tmp_select_a a1_ind a1_val size k i) (< a_copy0_ind (- (- size 1) k)) (assert_171_24_1 a_copy0_ind a_copy0_val (- (- size 1) k) tmp_select_a_copy k tmp_select_a a1_ind a1_val size k i))) (< k a0_ind) (assert_171_24_1 a_copy0_ind a_copy0_val a_copy1_ind a_copy1_val k tmp_select_a a0_ind a0_val size k i) (or (and (= a_copy0_ind (- (- size 1) k)) (= tmp_select_a_copy a_copy0_val)) (and (= a_copy1_ind (- (- size 1) k)) (= tmp_select_a_copy a_copy1_val)) (and (< (- (- size 1) k) a_copy0_ind) (< (- (- size 1) k) a_copy1_ind) (assert_171_24_1 (- (- size 1) k) tmp_select_a_copy a_copy1_ind a_copy1_val k tmp_select_a a0_ind a0_val size k i) (< (- (- size 1) k) a_copy0_ind) (assert_171_24_1 (- (- size 1) k) tmp_select_a_copy a_copy0_ind a_copy0_val k tmp_select_a a0_ind a0_val size k i)) (and (< a_copy0_ind (- (- size 1) k)) (< (- (- size 1) k) a_copy1_ind) (< (- (- size 1) k) a_copy1_ind) (assert_171_24_1 (- (- size 1) k) tmp_select_a_copy a_copy1_ind a_copy1_val k tmp_select_a a0_ind a0_val size k i) (< a_copy0_ind (- (- size 1) k)) (assert_171_24_1 a_copy0_ind a_copy0_val (- (- size 1) k) tmp_select_a_copy k tmp_select_a a0_ind a0_val size k i)) (and (< a_copy1_ind (- (- size 1) k)) (< a_copy1_ind (- (- size 1) k)) (assert_171_24_1 a_copy1_ind a_copy1_val (- (- size 1) k) tmp_select_a_copy k tmp_select_a a0_ind a0_val size k i) (< a_copy0_ind (- (- size 1) k)) (assert_171_24_1 a_copy0_ind a_copy0_val (- (- size 1) k) tmp_select_a_copy k tmp_select_a a0_ind a0_val size k i)))) (and (< a0_ind k) (< k a1_ind) (< k a1_ind) (assert_171_24_1 a_copy0_ind a_copy0_val a_copy1_ind a_copy1_val k tmp_select_a a1_ind a1_val size k i) (or (and (= a_copy0_ind (- (- size 1) k)) (= tmp_select_a_copy a_copy0_val)) (and (= a_copy1_ind (- (- size 1) k)) (= tmp_select_a_copy a_copy1_val)) (and (< (- (- size 1) k) a_copy0_ind) (< (- (- size 1) k) a_copy1_ind) (assert_171_24_1 (- (- size 1) k) tmp_select_a_copy a_copy1_ind a_copy1_val k tmp_select_a a1_ind a1_val size k i) (< (- (- size 1) k) a_copy0_ind) (assert_171_24_1 (- (- size 1) k) tmp_select_a_copy a_copy0_ind a_copy0_val k tmp_select_a a1_ind a1_val size k i)) (and (< a_copy0_ind (- (- size 1) k)) (< (- (- size 1) k) a_copy1_ind) (< (- (- size 1) k) a_copy1_ind) (assert_171_24_1 (- (- size 1) k) tmp_select_a_copy a_copy1_ind a_copy1_val k tmp_select_a a1_ind a1_val size k i) (< a_copy0_ind (- (- size 1) k)) (assert_171_24_1 a_copy0_ind a_copy0_val (- (- size 1) k) tmp_select_a_copy k tmp_select_a a1_ind a1_val size k i)) (and (< a_copy1_ind (- (- size 1) k)) (< a_copy1_ind (- (- size 1) k)) (assert_171_24_1 a_copy1_ind a_copy1_val (- (- size 1) k) tmp_select_a_copy k tmp_select_a a1_ind a1_val size k i) (< a_copy0_ind (- (- size 1) k)) (assert_171_24_1 a_copy0_ind a_copy0_val (- (- size 1) k) tmp_select_a_copy k tmp_select_a a1_ind a1_val size k i))) (< a0_ind k) (assert_171_24_1 a_copy0_ind a_copy0_val a_copy1_ind a_copy1_val a0_ind a0_val k tmp_select_a size k i) (or (and (= a_copy0_ind (- (- size 1) k)) (= tmp_select_a_copy a_copy0_val)) (and (= a_copy1_ind (- (- size 1) k)) (= tmp_select_a_copy a_copy1_val)) (and (< (- (- size 1) k) a_copy0_ind) (< (- (- size 1) k) a_copy1_ind) (assert_171_24_1 (- (- size 1) k) tmp_select_a_copy a_copy1_ind a_copy1_val a0_ind a0_val k tmp_select_a size k i) (< (- (- size 1) k) a_copy0_ind) (assert_171_24_1 (- (- size 1) k) tmp_select_a_copy a_copy0_ind a_copy0_val a0_ind a0_val k tmp_select_a size k i)) (and (< a_copy0_ind (- (- size 1) k)) (< (- (- size 1) k) a_copy1_ind) (< (- (- size 1) k) a_copy1_ind) (assert_171_24_1 (- (- size 1) k) tmp_select_a_copy a_copy1_ind a_copy1_val a0_ind a0_val k tmp_select_a size k i) (< a_copy0_ind (- (- size 1) k)) (assert_171_24_1 a_copy0_ind a_copy0_val (- (- size 1) k) tmp_select_a_copy a0_ind a0_val k tmp_select_a size k i)) (and (< a_copy1_ind (- (- size 1) k)) (< a_copy1_ind (- (- size 1) k)) (assert_171_24_1 a_copy1_ind a_copy1_val (- (- size 1) k) tmp_select_a_copy a0_ind a0_val k tmp_select_a size k i) (< a_copy0_ind (- (- size 1) k)) (assert_171_24_1 a_copy0_ind a_copy0_val (- (- size 1) k) tmp_select_a_copy a0_ind a0_val k tmp_select_a size k i)))) (and (< a1_ind k) (< a1_ind k) (assert_171_24_1 a_copy0_ind a_copy0_val a_copy1_ind a_copy1_val a1_ind a1_val k tmp_select_a size k i) (or (and (= a_copy0_ind (- (- size 1) k)) (= tmp_select_a_copy a_copy0_val)) (and (= a_copy1_ind (- (- size 1) k)) (= tmp_select_a_copy a_copy1_val)) (and (< (- (- size 1) k) a_copy0_ind) (< (- (- size 1) k) a_copy1_ind) (assert_171_24_1 (- (- size 1) k) tmp_select_a_copy a_copy1_ind a_copy1_val a1_ind a1_val k tmp_select_a size k i) (< (- (- size 1) k) a_copy0_ind) (assert_171_24_1 (- (- size 1) k) tmp_select_a_copy a_copy0_ind a_copy0_val a1_ind a1_val k tmp_select_a size k i)) (and (< a_copy0_ind (- (- size 1) k)) (< (- (- size 1) k) a_copy1_ind) (< (- (- size 1) k) a_copy1_ind) (assert_171_24_1 (- (- size 1) k) tmp_select_a_copy a_copy1_ind a_copy1_val a1_ind a1_val k tmp_select_a size k i) (< a_copy0_ind (- (- size 1) k)) (assert_171_24_1 a_copy0_ind a_copy0_val (- (- size 1) k) tmp_select_a_copy a1_ind a1_val k tmp_select_a size k i)) (and (< a_copy1_ind (- (- size 1) k)) (< a_copy1_ind (- (- size 1) k)) (assert_171_24_1 a_copy1_ind a_copy1_val (- (- size 1) k) tmp_select_a_copy a1_ind a1_val k tmp_select_a size k i) (< a_copy0_ind (- (- size 1) k)) (assert_171_24_1 a_copy0_ind a_copy0_val (- (- size 1) k) tmp_select_a_copy a1_ind a1_val k tmp_select_a size k i))) (< a0_ind k) (assert_171_24_1 a_copy0_ind a_copy0_val a_copy1_ind a_copy1_val a0_ind a0_val k tmp_select_a size k i) (or (and (= a_copy0_ind (- (- size 1) k)) (= tmp_select_a_copy a_copy0_val)) (and (= a_copy1_ind (- (- size 1) k)) (= tmp_select_a_copy a_copy1_val)) (and (< (- (- size 1) k) a_copy0_ind) (< (- (- size 1) k) a_copy1_ind) (assert_171_24_1 (- (- size 1) k) tmp_select_a_copy a_copy1_ind a_copy1_val a0_ind a0_val k tmp_select_a size k i) (< (- (- size 1) k) a_copy0_ind) (assert_171_24_1 (- (- size 1) k) tmp_select_a_copy a_copy0_ind a_copy0_val a0_ind a0_val k tmp_select_a size k i)) (and (< a_copy0_ind (- (- size 1) k)) (< (- (- size 1) k) a_copy1_ind) (< (- (- size 1) k) a_copy1_ind) (assert_171_24_1 (- (- size 1) k) tmp_select_a_copy a_copy1_ind a_copy1_val a0_ind a0_val k tmp_select_a size k i) (< a_copy0_ind (- (- size 1) k)) (assert_171_24_1 a_copy0_ind a_copy0_val (- (- size 1) k) tmp_select_a_copy a0_ind a0_val k tmp_select_a size k i)) (and (< a_copy1_ind (- (- size 1) k)) (< a_copy1_ind (- (- size 1) k)) (assert_171_24_1 a_copy1_ind a_copy1_val (- (- size 1) k) tmp_select_a_copy a0_ind a0_val k tmp_select_a size k i) (< a_copy0_ind (- (- size 1) k)) (assert_171_24_1 a_copy0_ind a_copy0_val (- (- size 1) k) tmp_select_a_copy a0_ind a0_val k tmp_select_a size k i)))))) (= tmp_select_a_copy tmp_select_a))))
(assert (forall ((a0_ind Int) (a0_val Int) (a1_ind Int) (a1_val Int) (a_copy0_ind Int) (a_copy0_val Int) (a_copy1_ind Int) (a_copy1_val Int) (i Int) (k Int) (size Int)) (=> (and (< a0_ind a1_ind) (< a_copy0_ind a_copy1_ind) (assert_171_24_1 a_copy0_ind a_copy0_val a_copy1_ind a_copy1_val a0_ind a0_val a1_ind a1_val size k i)) (end a_copy0_ind a_copy0_val a_copy1_ind a_copy1_val a0_ind a0_val a1_ind a1_val size k i))))
(check-sat)
